%chk=h2o_ccpvqz_sph.chk
#p HF/cc-pVQZ 5D 7F 9G pop=full gfprint

Water cc-pVQZ (Spherical 5D, 7F, 9G)

 0 1
 O      0.000000    0.000000    0.117300
 H      0.000000    0.757200   -0.469200
 H      0.000000   -0.757200   -0.469200

