%chk=h2o_ccpvtz_sph.chk
#p HF/cc-pVTZ 5D 7F pop=full gfprint

Water cc-pVTZ (Spherical 5D, 7F)

 0 1
 O      0.000000    0.000000    0.117300
 H      0.000000    0.757200   -0.469200
 H      0.000000   -0.757200   -0.469200

