%chk=h2o_ccpvtz_cart.chk
#p HF/cc-pVTZ 6D 10F pop=full gfprint

Water cc-pVTZ (Cartesian 6D, 10F)

 0 1
 O      0.000000    0.000000    0.117300
 H      0.000000    0.757200   -0.469200
 H      0.000000   -0.757200   -0.469200

