%chk=h2o_ccpvdz_sph.chk
#p HF/cc-pVDZ 5D pop=full gfprint

Water cc-pVDZ (Independent s/p, Spherical 5D)

 0 1
 O      0.000000    0.000000    0.117300
 H      0.000000    0.757200   -0.469200
 H      0.000000   -0.757200   -0.469200

