%chk=h2o_sto3g.chk
#p HF/STO-3G  pop=full gfprint

Water STO-3G (s and p mapping)

 0 1
 O      0.000000    0.000000    0.117300
 H      0.000000    0.757200   -0.469200
 H      0.000000   -0.757200   -0.469200

